33D32945 STP File, STP Format Version 1.0

SECTION Comments
Name "shell_n12_d3_s31"
Problem "Euclidean Steiner Tree Problem"
Remark "Generated with STPGenerator. 3 dimensions."
END

SECTION Graph
Nodes 12
END

SECTION Coordinates
DDD 0 0.1953048954 0.6087269550 0.7689652086
DDD 1 -0.4578747292 -0.3134895795 -0.8319104615
DDD 2 -0.9291961290 0.3335754130 -0.1591288715
DDD 3 0.3706549690 -0.9272544996 -0.0530470254
DDD 4 -0.1951988189 -0.8889916539 0.4142357547
DDD 5 -0.0448674121 -0.5148770072 -0.8560891208
DDD 6 0.8076060213 -0.4968902621 -0.3176044422
DDD 7 -0.8852970057 -0.1328473783 -0.4456464808
DDD 8 0.8656743575 0.4064336144 -0.2922663577
DDD 9 -0.0967870923 0.2432593050 0.9651202875
DDD 10 0.3081441371 0.9362385084 0.1688331905
DDD 11 -0.9975595241 -0.0067637553 0.0694927875
END
